c CNF file corresponding to a (partial) station packing problem.
p cnf 3810 238
3796 3797 3798 3799 3800 3801 3802 3803 3804 3805 3806 3807 3808 3809 3810 0
-3796 -3797 0
-3796 -3798 0
-3796 -3799 0
-3796 -3800 0
-3796 -3801 0
-3796 -3802 0
-3796 -3803 0
-3796 -3804 0
-3796 -3805 0
-3796 -3806 0
-3796 -3807 0
-3796 -3808 0
-3796 -3809 0
-3796 -3810 0
-3797 -3798 0
-3797 -3799 0
-3797 -3800 0
-3797 -3801 0
-3797 -3802 0
-3797 -3803 0
-3797 -3804 0
-3797 -3805 0
-3797 -3806 0
-3797 -3807 0
-3797 -3808 0
-3797 -3809 0
-3797 -3810 0
-3798 -3799 0
-3798 -3800 0
-3798 -3801 0
-3798 -3802 0
-3798 -3803 0
-3798 -3804 0
-3798 -3805 0
-3798 -3806 0
-3798 -3807 0
-3798 -3808 0
-3798 -3809 0
-3798 -3810 0
-3799 -3800 0
-3799 -3801 0
-3799 -3802 0
-3799 -3803 0
-3799 -3804 0
-3799 -3805 0
-3799 -3806 0
-3799 -3807 0
-3799 -3808 0
-3799 -3809 0
-3799 -3810 0
-3800 -3801 0
-3800 -3802 0
-3800 -3803 0
-3800 -3804 0
-3800 -3805 0
-3800 -3806 0
-3800 -3807 0
-3800 -3808 0
-3800 -3809 0
-3800 -3810 0
-3801 -3802 0
-3801 -3803 0
-3801 -3804 0
-3801 -3805 0
-3801 -3806 0
-3801 -3807 0
-3801 -3808 0
-3801 -3809 0
-3801 -3810 0
-3802 -3803 0
-3802 -3804 0
-3802 -3805 0
-3802 -3806 0
-3802 -3807 0
-3802 -3808 0
-3802 -3809 0
-3802 -3810 0
-3803 -3804 0
-3803 -3805 0
-3803 -3806 0
-3803 -3807 0
-3803 -3808 0
-3803 -3809 0
-3803 -3810 0
-3804 -3805 0
-3804 -3806 0
-3804 -3807 0
-3804 -3808 0
-3804 -3809 0
-3804 -3810 0
-3805 -3806 0
-3805 -3807 0
-3805 -3808 0
-3805 -3809 0
-3805 -3810 0
-3806 -3807 0
-3806 -3808 0
-3806 -3809 0
-3806 -3810 0
-3807 -3808 0
-3807 -3809 0
-3807 -3810 0
-3808 -3809 0
-3808 -3810 0
-3809 -3810 0
-6 -3802 0
-12 -3809 0
-9 -3804 0
-3806 -13 0
-3803 -4 0
-3808 -12 0
-3801 -5 0
-3805 -9 0
-10 -3809 0
-3806 -11 0
-8 -3807 0
-3797 -2 0
-3803 -6 0
-4 -3801 0
-3 -3798 0
-3809 -13 0
-9 -3802 0
-3 -3801 0
-1 -3796 0
-1 -3799 0
-11 -3804 0
-14 -3810 0
-3805 -6 0
-7 -3802 0
-3799 -3 0
-2 -3796 0
-3808 -13 0
-7 -3803 0
-14 -3808 0
-3800 -4 0
-3800 -5 0
-3798 -5 0
-8 -3805 0
-3810 -12 0
-3807 -11 0
-7 -3800 0
-10 -3806 0
-1 -3797 0
-3807 -10 0
-8 -3804 0
1 2 3 4 5 6 7 8 9 10 11 12 13 14 0
-1 -2 0
-1 -3 0
-1 -4 0
-1 -5 0
-1 -6 0
-1 -7 0
-1 -8 0
-1 -9 0
-1 -10 0
-1 -11 0
-1 -12 0
-1 -13 0
-1 -14 0
-2 -3 0
-2 -4 0
-2 -5 0
-2 -6 0
-2 -7 0
-2 -8 0
-2 -9 0
-2 -10 0
-2 -11 0
-2 -12 0
-2 -13 0
-2 -14 0
-3 -4 0
-3 -5 0
-3 -6 0
-3 -7 0
-3 -8 0
-3 -9 0
-3 -10 0
-3 -11 0
-3 -12 0
-3 -13 0
-3 -14 0
-4 -5 0
-4 -6 0
-4 -7 0
-4 -8 0
-4 -9 0
-4 -10 0
-4 -11 0
-4 -12 0
-4 -13 0
-4 -14 0
-5 -6 0
-5 -7 0
-5 -8 0
-5 -9 0
-5 -10 0
-5 -11 0
-5 -12 0
-5 -13 0
-5 -14 0
-6 -7 0
-6 -8 0
-6 -9 0
-6 -10 0
-6 -11 0
-6 -12 0
-6 -13 0
-6 -14 0
-7 -8 0
-7 -9 0
-7 -10 0
-7 -11 0
-7 -12 0
-7 -13 0
-7 -14 0
-8 -9 0
-8 -10 0
-8 -11 0
-8 -12 0
-8 -13 0
-8 -14 0
-9 -10 0
-9 -11 0
-9 -12 0
-9 -13 0
-9 -14 0
-10 -11 0
-10 -12 0
-10 -13 0
-10 -14 0
-11 -12 0
-11 -13 0
-11 -14 0
-12 -13 0
-12 -14 0
-13 -14 0
